
%    +-----------+
% 8  | | | | | | |
% 7  | | | | | | |
% 6  | | | | | | |
% 5  | | | | | | |
% 4  | |1|1|7| | |
% 3  | |1|1| |8| |
% 2  | |6|2| | |5|
% 1  | | | |3|4| |
%    +-----------+
n=6;
m=8;
h=2;
%maxT=15;
boxNumber=8;
boxSideLen = [2, 1, 1, 1, 1, 1, 1, 1];
boxStartX  = [2, 3, 4, 5, 6, 2, 4, 5];
boxStartY  = [3, 2, 1, 1, 2, 2, 4, 3];
